NAME : A-n36-k5.519455.tour
COMMENT : Length = 519455
COMMENT : Found by LKH [Keld Helsgaun] Sun Dec 17 18:35:07 2017
TYPE : TOUR
DIMENSION : 40
TOUR_SECTION
1
17
2
19
18
31
30
34
32
20
5
40
12
26
28
25
22
23
33
14
39
21
15
35
3
36
9
16
38
11
27
8
37
6
10
29
13
4
7
24
-1
EOF
